<number of tasks>
50

<cycle time>
1000

<order strength>
0.597


<task times>
1 488
2 531
3 71
4 302
5 97
6 66
7 72
8 306
9 77
10 125
11 477
12 74
13 148
14 68
15 21
16 450
17 194
18 475
19 79
20 410
21 80
22 136
23 422
24 289
25 212
26 283
27 163
28 602
29 316
30 227
31 517
32 349
33 497
34 168
35 105
36 92
37 454
38 334
39 115
40 187
41 231
42 255
43 247
44 76
45 279
46 136
47 300
48 427
49 97
50 70

<precedence relations>
1,17
2,17
3,27
4,27
5,6
5,7
5,8
6,17
7,9
7,10
7,11
7,12
7,13
7,15
7,16
8,14
9,17
10,17
11,17
12,44
13,27
14,19
14,20
14,28
14,34
15,17
15,18
16,18
16,20
17,21
17,22
17,23
17,24
17,25
17,27
17,28
18,27
19,26
19,27
20,26
21,37
23,37
24,34
25,44
26,44
27,29
27,30
27,31
27,32
27,33
28,42
29,40
30,44
30,45
31,36
32,35
32,40
33,37
33,45
34,35
34,36
35,44
36,38
36,39
37,40
38,43
39,42
40,41
41,44
42,44
43,44
43,45
44,46
44,47
44,48
44,49
44,50

<end>
